 # Version information for this restart file 
 # current date 2023-11-19 14:08:08.146
 # current working dir /scratch/phys/sin/Jie/Github/cp2kTest/VacancyLevels/level1_restart
 # Program compiled at                              Thu May 12 10:08:29 UTC 2022
 # Program compiled on                                              80d7174ae3e8
 # Program compiled for                                linux-centos7-haswell-gcc
 # Source code revision number                                       git:310b7ab
 &GLOBAL
   PRINT_LEVEL  LOW
   PROJECT_NAME MAPbI3
   RUN_TYPE  GEO_OPT
 &END GLOBAL
 &MOTION
   &GEO_OPT
     OPTIMIZER  BFGS
     MAX_ITER  1000
     STEP_START_VAL  810
   &END GEO_OPT
   &CELL_OPT
     STEP_START_VAL  0
   &END CELL_OPT
 &END MOTION
 &FORCE_EVAL
   METHOD  QS
   &DFT
     BASIS_SET_FILE_NAME BASIS_MOLOPT
     POTENTIAL_FILE_NAME GTH_POTENTIALS
     UKS  T
     MULTIPLICITY  2
     &SCF
       MAX_SCF  500
       EPS_SCF     9.9999999999999995E-07
       SCF_GUESS  RESTART
       &OT  T
         MINIMIZER  DIIS
         N_HISTORY_VEC  7
         PRECONDITIONER  FULL_KINETIC
       &END OT
     &END SCF
     &MGRID
       NGRIDS  4
       CUTOFF     2.2000000000000000E+02
       REL_CUTOFF     6.0000000000000000E+01
     &END MGRID
     &XC
       DENSITY_CUTOFF     1.0000000000000000E-10
       GRADIENT_CUTOFF     1.0000000000000000E-10
       TAU_CUTOFF     1.0000000000000000E-10
       &XC_FUNCTIONAL  NO_SHORTCUT
         &PBE  T
         &END PBE
       &END XC_FUNCTIONAL
       &VDW_POTENTIAL
         POTENTIAL_TYPE  PAIR_POTENTIAL
         &PAIR_POTENTIAL
           TYPE  DFTD3
           PARAMETER_FILE_NAME dftd3.dat
           REFERENCE_FUNCTIONAL PBE
           CALCULATE_C9_TERM  T
           REFERENCE_C9_TERM  T
         &END PAIR_POTENTIAL
       &END VDW_POTENTIAL
     &END XC
     &REAL_TIME_PROPAGATION
       INITIAL_WFN  SCF_WFN
     &END REAL_TIME_PROPAGATION
   &END DFT
   &SUBSYS
     &CELL
       A     3.1790000000000006E+01    0.0000000000000000E+00    0.0000000000000000E+00
       B     0.0000000000000000E+00    3.1090000000000000E+01    0.0000000000000000E+00
       C     0.0000000000000000E+00    0.0000000000000000E+00    3.0389999999999997E+01
       PERIODIC  NONE
       MULTIPLE_UNIT_CELL  1 1 1
     &END CELL
     &COORD
I    1.1433572879840609E+01    1.2157428667095152E+01    8.3880242190684609E+00
I    1.8607627598560413E+01    1.2221888088877252E+01    8.6182519917933806E+00
I    1.2548181535950949E+01    1.9045281244961071E+01    8.7074180290858649E+00
I    2.0084027202275291E+01    1.7366601680483150E+01    8.7021074260629376E+00
I    1.1434303785220258E+01    9.0032366516379057E+00    1.1581707158720070E+01
I    1.9598938182833624E+01    8.9820908798851455E+00    1.1621843641893069E+01
I    8.3599111845589853E+00    1.3382121458065455E+01    1.1879516073623021E+01
I    1.0517993373926094E+01    1.2221646522279890E+01    1.4204427627327508E+01
I    1.2429785878139755E+01    1.5315485883196594E+01    1.1575552961170802E+01
I    1.5226854210499225E+01    1.1935232949976244E+01    1.1207388977744449E+01
I    1.8633021784755297E+01    1.1849920495809304E+01    1.4874421641652679E+01
I    1.8219197111919083E+01    1.5242024875661860E+01    1.1992821127177205E+01
I    2.2132253285471791E+01    1.3000366461673941E+01    1.1908044392718249E+01
I    9.5947563250763803E+00    1.8866221045839097E+01    1.2381930843286529E+01
I    1.2801002225079248E+01    1.8015602620965790E+01    1.5159056151440030E+01
I    1.3022166782305241E+01    2.1627599465159740E+01    1.2640634917063700E+01
I    1.6171701319609468E+01    1.8785488390975758E+01    1.1638575666106130E+01
I    1.9408289812581817E+01    1.8394438361490860E+01    1.4938723933435481E+01
I    1.9268582806588036E+01    2.2434132262431707E+01    1.2393842275182235E+01
I    2.2387618651307818E+01    1.8198877448119738E+01    1.1218138394389971E+01
I    1.3710783757850351E+01    6.1580188107415488E+00    1.7470305413693755E+01
I    1.8303784689073606E+01    8.2537763733770664E+00    1.8214644987454268E+01
I    9.8254578135334167E+00    1.1060060529047281E+01    1.8115106793175176E+01
I    1.3790896401136251E+01    1.1432039861923673E+01    2.1090975557225658E+01
I    1.2369033895077981E+01    1.5045171779818347E+01    1.8688280953150734E+01
I    1.5370578879625409E+01    1.1663485765257018E+01    1.6776306034310913E+01
I    1.8735670317236011E+01    1.1814567611620598E+01    2.1645018344525656E+01
I    1.8759392074714150E+01    1.5186241221112168E+01    1.8543973202456083E+01
I    2.1834653318888751E+01    1.1706263477344008E+01    1.8136940631998584E+01
I    9.7262086143813402E+00    1.8823787640841427E+01    1.8367194611989632E+01
I    1.3266716827520787E+01    1.8677849060353161E+01    2.0900016124401294E+01
I    1.2221641460732121E+01    2.3054426808297055E+01    1.7693162851670166E+01
I    1.5891995024938648E+01    1.8168991657851237E+01    1.7519403246796312E+01
I    1.8529799238545817E+01    1.8637893592049927E+01    2.1952359485252767E+01
I    1.8048644646388137E+01    2.1854667219820669E+01    1.8752391677352918E+01
I    2.1955891313537773E+01    1.8440960249889624E+01    1.8798341744856291E+01
Pb    1.2173598814819053E+01    1.2075366043673746E+01    1.1352728249427267E+01
Pb    1.9150840602952719E+01    1.2290447748304082E+01    1.1790320151866039E+01
Pb    1.2656560721463491E+01    1.8627610357403217E+01    1.1883842918372618E+01
Pb    1.9204006160993135E+01    1.9205976846939144E+01    1.1981616567134967E+01
Pb    1.2760278790502211E+01    1.2046012145337254E+01    1.8377224129688603E+01
Pb    1.8889094104678552E+01    1.2078307883154229E+01    1.8599879129534457E+01
Pb    1.2707958889384509E+01    1.9693702864841562E+01    1.8058490731931350E+01
Pb    1.8726649476436084E+01    1.8697610455132672E+01    1.8909081362985049E+01
C    1.5243282519708158E+01    1.5345402638180786E+01    8.5516190416267559E+00
C    1.5349492879777547E+01    8.9376588351607396E+00    1.3649302355361737E+01
C    9.1794840771882633E+00    1.5647204733181136E+01    1.5616328366436456E+01
C    1.5559914749078825E+01    1.5109995072902068E+01    1.4842874914835301E+01
C    2.1623537138736673E+01    1.4992309518283868E+01    1.5735917648107392E+01
C    1.5929864323558238E+01    2.1259011551312994E+01    1.4999386906438302E+01
C    1.5602794964163870E+01    1.5128546616416536E+01    2.1052223787854924E+01
N    1.6794256433606392E+01    1.5331917286714683E+01    8.7557643095365432E+00
N    1.6428106723080848E+01    8.8292992922697788E+00    1.4764671978031153E+01
N    1.0706143350568365E+01    1.5332213139696695E+01    1.5620495733060000E+01
N    1.7024050979022213E+01    1.5114153360591898E+01    1.5399024417240780E+01
N    2.3172731693371038E+01    1.4903332385728822E+01    1.5738015832362382E+01
N    1.7441973599271080E+01    2.1274341250670954E+01    1.5401417435100052E+01
N    1.6442534271281470E+01    1.5645889956934582E+01    2.2257118320879744E+01
H    1.5049183889499563E+01    1.5075844749180980E+01    7.5415952289516204E+00
H    1.4891383416806368E+01    1.6326694928707408E+01    8.7710744797340698E+00
H    1.4827762113102461E+01    1.4636372761279032E+01    9.2279034113596161E+00
H    1.7265963297556329E+01    1.6048366845368491E+01    8.1697734682466088E+00
H    1.7189279633406514E+01    1.4396693199142762E+01    8.5004722241042749E+00
H    1.7054303631006398E+01    1.5501508374342306E+01    9.7627513629717626E+00
H    1.5842585113059890E+01    9.0284794961371180E+00    1.2713534769030405E+01
H    1.4742612150835306E+01    9.7877008182263463E+00    1.3832606151446068E+01
H    1.4764311310342075E+01    8.0523387204059134E+00    1.3669648356100629E+01
H    1.6945662451757283E+01    9.7164089847179334E+00    1.4848579821943169E+01
H    1.7158396989472148E+01    7.9695791080697438E+00    1.4540554319282890E+01
H    1.5974128633817809E+01    8.6070543995760946E+00    1.5659790652797247E+01
H    8.8773376787423874E+00    1.5721365823976413E+01    1.4602052571342286E+01
H    9.0206733557457852E+00    1.6556504595432731E+01    1.6143893156827836E+01
H    8.6731265276885399E+00    1.4841701233089804E+01    1.6090858155816154E+01
H    1.1261530562308865E+01    1.6130219302202288E+01    1.5222410812958861E+01
H    1.0871441019090788E+01    1.4453231524401165E+01    1.5068041463205594E+01
H    1.1064502875099986E+01    1.5186906046144802E+01    1.6595447927696402E+01
H    1.5614574935839549E+01    1.4944897759656609E+01    1.3793341404865389E+01
H    1.5126919895827244E+01    1.6055702968533964E+01    1.5058998827410607E+01
H    1.5041908658979224E+01    1.4321450861121898E+01    1.5330195746012564E+01
H    1.7591009214644092E+01    1.5842488633112765E+01    1.4917864849439923E+01
H    1.7481050847302960E+01    1.4187552052990775E+01    1.5225692217055302E+01
H    1.7053836116030677E+01    1.5304195414360603E+01    1.6424830385351665E+01
H    2.1270820040918693E+01    1.4631318870207117E+01    1.4801831601732314E+01
H    2.1349136588093206E+01    1.6009330087464502E+01    1.5869240533789553E+01
H    2.1245469121137045E+01    1.4400586968829563E+01    1.6530122712612158E+01
H    2.3554821230109859E+01    1.5498862889686633E+01    1.4908753129632522E+01
H    2.3539556735684915E+01    1.3913637238412276E+01    1.5575835973432786E+01
H    2.3559083215626689E+01    1.5243254226952013E+01    1.6630308337978004E+01
H    1.5865270589886988E+01    2.1086448873254131E+01    1.3953716881681290E+01
H    1.5507807423856628E+01    2.2196592133212079E+01    1.5256707735225124E+01
H    1.5461044903703252E+01    2.0467288333556652E+01    1.5531508751437324E+01
H    1.7960281608186985E+01    2.1957225919249918E+01    1.4813545028579577E+01
H    1.7882513702532584E+01    2.0333429253636034E+01    1.5255752728384197E+01
H    1.7573292772095741E+01    2.1528589510743569E+01    1.6416159908248471E+01
H    1.6259936159303813E+01    1.4734237814669559E+01    2.0318170283693991E+01
H    1.5054542631416817E+01    1.5946481395337569E+01    2.0654737024573123E+01
H    1.4945094720492165E+01    1.4376047733116810E+01    2.1405736976546059E+01
H    1.7056712966680276E+01    1.6425313101902766E+01    2.1963357289362666E+01
H    1.7035579915117026E+01    1.4887870712049983E+01    2.2620882229008483E+01
H    1.5745348035168936E+01    1.6039329854203068E+01    2.3088259979799666E+01
H    7.0047222115418215E+00    1.1187024803585036E+01    1.3543829272239337E+01
O    7.0604761068141677E+00    1.0584079906278300E+01    1.4336877400348826E+01
H    6.8039621515921667E+00    1.1068512374791409E+01    1.5376870940818247E+01
H    5.9010529253719533E+00    1.0971203939899961E+01    1.7022538935315612E+01
O    6.5004054625701553E+00    1.1549353011102133E+01    1.6474893402824378E+01
H    6.4660813070570713E+00    1.2689817399484090E+01    1.6721353398037259E+01
H    6.3670726780228533E+00    1.1819232759562174E+01    2.0110968387139163E+01
O    7.1673908582467885E+00    1.1232158531757999E+01    2.0259008298092485E+01
H    7.7719127512063446E+00    1.1290810195190295E+01    1.9444550780771586E+01
H    7.0391359782308491E+00    1.5516940030032169E+01    1.0312807789305257E+01
O    7.1704114133643175E+00    1.4247765979712369E+01    1.0135640091543472E+01
H    7.9114157364916311E+00    1.4241441097457551E+01    9.2935412619756068E+00
H    6.2539644318146710E+00    1.6273695628702516E+01    1.4517184817899862E+01
O    5.9915912839630003E+00    1.5278122226389442E+01    1.4739750764383441E+01
H    5.6857907110708226E+00    1.4822094926486971E+01    1.3904478025012057E+01
H    6.1965120848855157E+00    1.4504344179659254E+01    1.6005094591548435E+01
O    6.3994903609223437E+00    1.3936320869067563E+01    1.6877167216249578E+01
H    6.6869702116197818E+00    1.4541823407135047E+01    1.7674623074887283E+01
H    6.6412784891176360E+00    1.7409418370628188E+01    1.0887065858221540E+01
O    7.1360194887377828E+00    1.6673189190405690E+01    1.0257260996865485E+01
H    7.9844587924180255E+00    1.6944216769978553E+01    9.6951708374861987E+00
H    6.5120592647028310E+00    1.8528420115621124E+01    1.4890091668628502E+01
O    6.7389425565569399E+00    1.7708682131486800E+01    1.4142122681336518E+01
H    7.7325655038598633E+00    1.7741985485714498E+01    1.3960151586301041E+01
H    6.8615661497990779E+00    1.6437241211124405E+01    1.9128769429720098E+01
O    7.2320731441736665E+00    1.5563320510751259E+01    1.8720089836266922E+01
H    8.1199483935229679E+00    1.5381808388046226E+01    1.9148225835215783E+01
H    6.2358560394181044E+00    1.8082818200038712E+01    1.2802981545283050E+01
O    6.0291137750368931E+00    1.8290605468215848E+01    1.1770904270146875E+01
H    5.9083267214743547E+00    1.9264601606799712E+01    1.1591250597555799E+01
H    5.4792302257505474E+00    1.9501102903061977E+01    1.6312903963425427E+01
O    6.2842002571901663E+00    1.9539061600610946E+01    1.5725037430842693E+01
H    6.9988489795621112E+00    2.0308831056636407E+01    1.6041797906332182E+01
H    6.0227928760634226E+00    1.8381968584949956E+01    2.0493241945619939E+01
O    6.6303389353700908E+00    1.7926224433915312E+01    1.9837602126019071E+01
H    7.4293472061080985E+00    1.8526182347847101E+01    1.9664255100426690E+01
H    9.2393570676433274E+00    9.4201283238198510E+00    7.9526263659637246E+00
O    9.3310915523076474E+00    8.4789627949890924E+00    8.2938097750341964E+00
H    9.8800643560751453E+00    8.5563673283226453E+00    9.1358657109173613E+00
H    7.8007027327675384E+00    9.6711769100856273E+00    1.4208187086293433E+01
O    8.6172595592346788E+00    8.7427663104523266E+00    1.4132327360136030E+01
H    9.3571826039197568E+00    8.9034177467637949E+00    1.3469173573130357E+01
H    8.9873503345144048E+00    8.4148801773072037E+00    1.5141190108831569E+01
O    9.3924491646475001E+00    8.0912760221210380E+00    1.6358201535583756E+01
H    9.6550408293864880E+00    8.8796669747854082E+00    1.6930403415396579E+01
H    9.6590720797027938E+00    8.1614204094372873E+00    1.9889848539385579E+01
O    1.0378785589979779E+01    7.7722750546798274E+00    2.0466298471004823E+01
H    1.0680546523084882E+01    8.6618718377006978E+00    2.1608154589595546E+01
H    8.2363486197105509E+00    1.1176097198109119E+01    2.1543312564246161E+01
O    9.0559455239375968E+00    1.1223785878876807E+01    2.2161104375042779E+01
H    9.5340539311263246E+00    1.2161870479507261E+01    2.2102755540177380E+01
H    9.0690682810724255E+00    1.5603210539516269E+01    8.3783375080507749E+00
O    8.8376718462560646E+00    1.4570092808540007E+01    8.3331780368752355E+00
H    9.6525483368485023E+00    1.3977572998299840E+01    8.2541652228186919E+00
H    1.0213460843975184E+01    1.4409720214521332E+01    2.1870604757226133E+01
O    1.0378654868616634E+01    1.3396396385154620E+01    2.1947427882817706E+01
H    1.1351387173816834E+01    1.3205457895350991E+01    2.1794138586364998E+01
H    8.9690388105397911E+00    1.8016532937956821E+01    8.2145173025310321E+00
O    9.1832105043833572E+00    1.7068222090266971E+01    8.7680226881168828E+00
H    1.0010592677246295E+01    1.7225753219686702E+01    9.3196952980546630E+00
H    9.4601823947847681E+00    1.6792682799047281E+01    2.1784215228404079E+01
O    1.0159865255174697E+01    1.6088888365451314E+01    2.1629027006017651E+01
H    1.0861170614057809E+01    1.6481406580128084E+01    2.1015202224017791E+01
H    7.7947361454632293E+00    1.9373493707210230E+01    7.2383957130799548E+00
O    8.6795192675730384E+00    1.9231898425045294E+01    7.6786074595391591E+00
H    9.0888393824237070E+00    2.0159533720622420E+01    8.0948316376352967E+00
H    9.5571186974513118E+00    2.2524884935252118E+01    1.1631876997664511E+01
O    1.0208778280300695E+01    2.2486161950056243E+01    1.0807653233940336E+01
H    1.1007243957024704E+01    2.1959729125318123E+01    1.1156787523317716E+01
H    9.0908335504816229E+00    2.2778901818493772E+01    1.3967812903195441E+01
O    8.8358033968688634E+00    2.2338052527646163E+01    1.3088716343498531E+01
H    8.8842729834993204E+00    2.1334817785929889E+01    1.3229463445001223E+01
H    8.3925699321459462E+00    2.2048213295084139E+01    1.6280981740705759E+01
O    7.9503988175474669E+00    2.1155327614507843E+01    1.6568839437777203E+01
H    8.5748286701350889E+00    2.0632053135474258E+01    1.7173423890146793E+01
H    8.2343637487714467E+00    2.1968860065621815E+01    2.2758672491395657E+01
O    8.4527139440333521E+00    2.1529323466776663E+01    2.1885690551881471E+01
H    9.3095817042892701E+00    2.1965576145221103E+01    2.1554190295781851E+01
H    9.8823627124613047E+00    5.8921152860093464E+00    1.3767848677701711E+01
O    1.0756281368600982E+01    5.5340119745002774E+00    1.4101687839920762E+01
H    1.0773783642595603E+01    5.5721458708370388E+00    1.5156377239777065E+01
H    9.9954681321032552E+00    7.2094802644439877E+00    1.6522161501796973E+01
O    1.0696563761483484E+01    5.9370721031698483E+00    1.6673283437411126E+01
H    1.1003462983560606E+01    5.8331906980315971E+00    1.7848077067396080E+01
H    1.0901503150091289E+01    7.0415757872577016E+00    1.9908971586281503E+01
O    1.1485635553195646E+01    5.9342615505274958E+00    1.8992467856650151E+01
H    1.1643923644304902E+01    5.0503061641261562E+00    1.9449722829306854E+01
H    9.8866737215527039E+00    1.0229460050993813E+01    2.2284666550462337E+01
O    1.0688059034002089E+01    9.4063169265075217E+00    2.2372187683651305E+01
H    1.1518213031891149E+01    9.6098852885977735E+00    2.3026908794371902E+01
H    1.2189365305730867E+01    9.6417878005406816E+00    2.4977209765447125E+01
O    1.2476623407745301E+01    9.9330549414107630E+00    2.4065396668206926E+01
H    1.3207576138371266E+01    1.0700849431452287E+01    2.4173966416754364E+01
H    1.1760319076868925E+01    1.3027991991836814E+01    5.2278415706699199E+00
O    1.2693251043337773E+01    1.3387477393264177E+01    5.2754688568601500E+00
H    1.2657050883826351E+01    1.4408311282977401E+01    5.5431987311912412E+00
H    1.2315896196924871E+01    1.6754778132301862E+01    5.5529990089875945E+00
O    1.2581399499138218E+01    1.5871470631674649E+01    6.0219811444843954E+00
H    1.2523356764386012E+01    1.6036405504884328E+01    7.0101502469834909E+00
H    1.2011610097184962E+01    1.6993288941394585E+01    2.3715860966852393E+01
O    1.2739844484131762E+01    1.7432063696085820E+01    2.4243595126443967E+01
H    1.2580327999631894E+01    1.8545844438636951E+01    2.4280130764779592E+01
H    1.1040210294445709E+01    1.8696131769329345E+01    5.5327606676410390E+00
O    1.1919085920667214E+01    1.8354573277689571E+01    5.1739300535014259E+00
H    1.2636762186991986E+01    1.8964606244394144E+01    5.5336667993204074E+00
H    1.1981874383703721E+01    2.0175872823261681E+01    2.5248728465623056E+01
O    1.2362723335829154E+01    1.9863486028666934E+01    2.4382070503868452E+01
H    1.2501662512832342E+01    2.0711897537267355E+01    2.3673590423663640E+01
H    9.7940958646226566E+00    2.1812696421577932E+01    9.4499244341200423E+00
O    9.8302201641984528E+00    2.1263826281364899E+01    8.5482588399239781E+00
H    1.0774947017493812E+01    2.0904547160532491E+01    8.4810787536582506E+00
H    1.1959301308456519E+01    2.2154612128567418E+01    2.2285474953207324E+01
O    1.2693410276642508E+01    2.1808544481059158E+01    2.2895122410029273E+01
H    1.3626196997457180E+01    2.1904897911329275E+01    2.2398567000485521E+01
H    1.1212524634004419E+01    2.4023160747084741E+01    1.1146709173314042E+01
O    1.1805454638780478E+01    2.4824760182684724E+01    1.1394327922081169E+01
H    1.1642593571149726E+01    2.5545168796510058E+01    1.0717537307007401E+01
H    8.9016481349767584E+00    2.4239568632641035E+01    1.6101461009376784E+01
O    9.2755208400680420E+00    2.3321934135660133E+01    1.5934024409676526E+01
H    1.0203095068165487E+01    2.3258407153395268E+01    1.6387102962634795E+01
H    1.0868289816420145E+01    2.4026581641593395E+01    2.1252226597957442E+01
O    1.0857412331845076E+01    2.3039320101953127E+01    2.1064567703250372E+01
H    1.1209684026055102E+01    2.2923110076410495E+01    2.0113239747495001E+01
H    1.1858511229377331E+01    5.4417508652190669E+00    1.3229652041569718E+01
O    1.2702023286316221E+01    5.4001179185070809E+00    1.2553656226817173E+01
H    1.2516521201489359E+01    5.8870078313866072E+00    1.1700164960419771E+01
H    1.3961381992694255E+01    5.4352868388474453E+00    1.3026221713594085E+01
O    1.5010916906364946E+01    5.5059514425127514E+00    1.3404810689448430E+01
H    1.5921927550329675E+01    5.7672015768508578E+00    1.2704705450702781E+01
H    1.5141601569248584E+01    5.6744437534998742E+00    1.4420217243726714E+01
O    1.5448791175172206E+01    6.1537201119179885E+00    1.5939570721238773E+01
H    1.6192622201408764E+01    5.6717244700392708E+00    1.6436397213710570E+01
H    1.3176517772885123E+01    8.5559001158410766E+00    9.7839222090548272E+00
O    1.4018772158556887E+01    8.3167186029299902E+00    9.2842600059317490E+00
H    1.4290028304749828E+01    9.0862403508082643E+00    8.6258331843688065E+00
H    1.5192293049253481E+01    7.8427309734567237E+00    9.9505501739215436E+00
O    1.6227045269209793E+01    7.6663876752255566E+00    1.0229131197936340E+01
H    1.6809251760579141E+01    8.0540262782588847E+00    9.4081096910507878E+00
H    1.5065573731613020E+01    8.8218255394396028E+00    2.1025123565501140E+01
O    1.5337447386623593E+01    7.9913531984710584E+00    2.1528858131777621E+01
H    1.4719299928983416E+01    7.9237279212621425E+00    2.2317911056764640E+01
H    1.3691876170485017E+01    1.2364461451156807E+01    5.6647097943930662E+00
O    1.4418775651868305E+01    1.1605686691403060E+01    5.8702162321177136E+00
H    1.4944407183174118E+01    1.1390696035373145E+01    5.0488193215827319E+00
H    1.4746618255886510E+01    1.0842600200625045E+01    7.0196300120739945E+00
O    1.5091148477206074E+01    1.0296955322568095E+01    7.9045873250753367E+00
H    1.5190241542549904E+01    1.0960924735798057E+01    8.6573210857039982E+00
H    1.4177146722638291E+01    1.4286736711188507E+01    2.6132564965189381E+01
O    1.4569529038057761E+01    1.4146949028736245E+01    2.5223525436318358E+01
H    1.4804198811239623E+01    1.5098052515404605E+01    2.4830210502771799E+01
H    1.3933131242941363E+01    1.6905941627515588E+01    2.4132390085825378E+01
O    1.5013992591243808E+01    1.6517645569572590E+01    2.4166607376167935E+01
H    1.5528298567791499E+01    1.7329679761334251E+01    2.4530221884106105E+01
H    1.5965548278659998E+01    2.0450093807894220E+01    7.9828005028857874E+00
O    1.6677547176724381E+01    1.9544877258425384E+01    7.8118697217484536E+00
H    1.7498637677096976E+01    1.9710912613480740E+01    8.3723693759711768E+00
H    1.5389401157796135E+01    1.9691383869638397E+01    2.4451204611649221E+01
O    1.6111524050416385E+01    1.9002337347852414E+01    2.4584338473726060E+01
H    1.6826472883805145E+01    1.9176244759770150E+01    2.3889167749667692E+01
H    1.4278809610045164E+01    2.1120807412691573E+01    8.2549423204276167E+00
O    1.5221674966610840E+01    2.1474423592649288E+01    8.2300613415586437E+00
H    1.5402962792426585E+01    2.2073670264835016E+01    9.1658492273193328E+00
H    1.5062616859415936E+01    2.2188088889794415E+01    1.1069836796402432E+01
O    1.5566174930852426E+01    2.2675648072500994E+01    1.0346409298790507E+01
H    1.5823583936354581E+01    2.3665076879940809E+01    1.0712805666093372E+01
H    1.5255772869165641E+01    2.2884692140253140E+01    2.1176485035613442E+01
O    1.4905387592951360E+01    2.2022015571875571E+01    2.1627899107339630E+01
H    1.5170271629249157E+01    2.1222674600107219E+01    2.1081279183116902E+01
H    1.3095798021765383E+01    2.4960394702709589E+01    1.2399803364133072E+01
O    1.4006242027255873E+01    2.5155592443716223E+01    1.2862411102698633E+01
H    1.4041023077029099E+01    2.4967716887689317E+01    1.3857957500388901E+01
H    1.3994278251972034E+01    2.4290830347105853E+01    1.6185192454261724E+01
O    1.4566045656414062E+01    2.4930446988442650E+01    1.5623757110817706E+01
H    1.4409305499366910E+01    2.5849223904721462E+01    1.6004439588611429E+01
H    1.6286055492364987E+01    2.4986979615618452E+01    2.0822089821923505E+01
O    1.5900691081798687E+01    2.4179563987555184E+01    2.0365938566964818E+01
H    1.6612589288350218E+01    2.3776815912699757E+01    1.9763088720706222E+01
H    1.6586716292006578E+01    6.9717854726267454E+00    1.1053620582202562E+01
O    1.6919459508485499E+01    6.1211135947939992E+00    1.2017616308690572E+01
H    1.7376501578036127E+01    5.3388463236233008E+00    1.1588996226009552E+01
H    1.7732668122792312E+01    6.5652439783445962E+00    1.3270502308997006E+01
O    1.7988446139330549E+01    6.9090170057858833E+00    1.4238878007538618E+01
H    1.8983878755288870E+01    7.0006401036086956E+00    1.4440203955453619E+01
H    1.6661937819837959E+01    6.8934766233104154E+00    2.1251382836909105E+01
O    1.7549708320724388E+01    6.3742065724069050E+00    2.1214024786642014E+01
H    1.8252705203506345E+01    7.0106682983785422E+00    2.1609298225413212E+01
H    1.6307490226114481E+01    9.3978190752525759E+00    7.9127677957778806E+00
O    1.7114422666285229E+01    8.7431025351912375E+00    8.1285285988481153E+00
H    1.7969027972859532E+01    9.2395559667577363E+00    7.9813124231414401E+00
H    1.9071279057572042E+01    9.1809798937227054E+00    2.1894988629043059E+01
O    1.9348677428318393E+01    8.2550744311888575E+00    2.2205127570920506E+01
H    1.9612194218935738E+01    8.3591064561903323E+00    2.3170912564122691E+01
H    1.8048895837922490E+01    1.3187885419201599E+01    5.7532465907375414E+00
O    1.8553521233982739E+01    1.2091279416344635E+01    6.0121891159466214E+00
H    1.9618844218208839E+01    1.2104799453897849E+01    5.9675880502599439E+00
H    1.4398205324888979E+01    1.2690885463310179E+01    2.4727840507765002E+01
O    1.4351558339130635E+01    1.1662490349429158E+01    2.4481507753374000E+01
H    1.5267159210222683E+01    1.1370727178004564E+01    2.4199768903531133E+01
H    1.6814363864588795E+01    1.4189888496339186E+01    4.8022859467537016E+00
O    1.7540692016535445E+01    1.4248211400913876E+01    5.4820622794689706E+00
H    1.8034187362339864E+01    1.5348128728953819E+01    5.6256365766840482E+00
H    1.6957133147444832E+01    1.9088453270337045E+01    6.7460151997548428E+00
O    1.7332203631468094E+01    1.8569429321620543E+01    5.6933588943570772E+00
H    1.7586820805820039E+01    1.9171880833056868E+01    4.9411569684047025E+00
H    1.7628223426135051E+01    2.2179711086136095E+01    8.3936810063802731E+00
O    1.8430741021487730E+01    2.1701318492984505E+01    8.7661230305366100E+00
H    1.8485037635494788E+01    2.1971024600916227E+01    9.7380155779900335E+00
H    1.5156917474554065E+01    2.5082048601149111E+01    1.2057384075487606E+01
O    1.6006135437691974E+01    2.4939609252454403E+01    1.1392343622053785E+01
H    1.6170677767934038E+01    2.5758889506695834E+01    1.0846530034554165E+01
H    1.6522546769862608E+01    2.4676515159401731E+01    1.5380095630284025E+01
O    1.7505042181069655E+01    2.4531230580237075E+01    1.5144441522249817E+01
H    1.7571190505097107E+01    2.4555673633479053E+01    1.4138794115729782E+01
H    1.8998445249810853E+01    2.4782429804718692E+01    1.6010110129230860E+01
O    1.9972397801348023E+01    2.4826137207402454E+01    1.6352777922887480E+01
H    2.0578186529351392E+01    2.5120634471767200E+01    1.5568125064567084E+01
H    2.1496969787322584E+01    8.1776810092607928E+00    9.3754967930018189E+00
O    2.1463506522697500E+01    7.3747490313688395E+00    1.0182134951283009E+01
H    2.2204975176445281E+01    7.6169803568368435E+00    1.0854175073554666E+01
H    2.0373014894228703E+01    7.4870587653066645E+00    1.6357907710943135E+01
O    2.0194100565106364E+01    7.2357615074459867E+00    1.7736724014822677E+01
H    2.0785741863081565E+01    7.1301476729504856E+00    1.8832702178935072E+01
H    2.0594363969189668E+01    6.8562098592967056E+00    2.0637404704270914E+01
O    2.1300893173607193E+01    7.0289602064853405E+00    1.9940016256258080E+01
H    2.2025675912744269E+01    7.8502764303827135E+00    2.0314782955687861E+01
H    2.0710431213282497E+01    9.5709616961135087E+00    8.1722195909772832E+00
O    2.1572851754554605E+01    9.2060448808101203E+00    8.5219793555788605E+00
H    2.2371817645852303E+01    9.9298048318066403E+00    8.4482652195208363E+00
H    2.0040327138301087E+01    8.7160526710605435E+00    1.5252445714204779E+01
O    2.0414057616868565E+01    7.7822958257247290E+00    1.5299587394050214E+01
H    2.1744612363797984E+01    7.9275065655178940E+00    1.4721689643770956E+01
H    2.1633650862337703E+01    1.2683792789028642E+01    6.8282863135742700E+00
O    2.1149741113412958E+01    1.2167564187017282E+01    6.0692926342372724E+00
H    2.1804604275993963E+01    1.1608263990649750E+01    5.5611660047436926E+00
H    2.0596767383494669E+01    1.2050537787982281E+01    2.4764878304897117E+01
O    2.0807747995053951E+01    1.1058019213378090E+01    2.4672347489138073E+01
H    2.1579952439960753E+01    1.0988978290645209E+01    2.4029926915955521E+01
H    1.9822817913124457E+01    1.4279090817109353E+01    2.5680174451243055E+01
O    2.0368283899057662E+01    1.3869565800018144E+01    2.4941788945298274E+01
H    2.0911957920823852E+01    1.4609926174835946E+01    2.4531870521407967E+01
H    1.7898122491387909E+01    1.7546567412376753E+01    5.7214652767818759E+00
O    1.8495174280771771E+01    1.6440775641839075E+01    5.8164693439225950E+00
H    1.9488661259251842E+01    1.6486982184425869E+01    5.7316182822244279E+00
H    2.0604680769158623E+01    1.9608904860432315E+01    6.8390953631092088E+00
O    2.1466249042160342E+01    1.9808922845802233E+01    6.3606339301605130E+00
H    2.2018539974449549E+01    2.0415291551173958E+01    7.0070629265075768E+00