POSCAR_333_1
1.0
       25.1851005554         0.0000000000         0.0000000000
        0.0000432622        24.9918003082         0.0000000000
        0.6004650123        -0.0000891082        25.4308125275
    I   Pb    C    N    H
  108   27   32   32  192
Direct
     0.250449985         0.262490004         0.102399997
     0.500450015         0.262490004         0.102399997
     0.750450015         0.262490004         0.102399997
     0.250449985         0.512489974         0.102399997
     0.500450015         0.512489974         0.102399997
     0.750450015         0.512489974         0.102399997
     0.250449985         0.762489974         0.102399997
     0.500450015         0.762489974         0.102399997
     0.750450015         0.762489974         0.102399997
     0.251080006         0.137490004         0.237969995
     0.501079977         0.137490004         0.237969995
     0.751079977         0.137490004         0.237969995
     0.131549999         0.262490004         0.216820002
     0.250449985         0.262490004         0.352400005
     0.251080006         0.387490004         0.237969995
     0.381550014         0.262490004         0.216820002
     0.500450015         0.262490004         0.352400005
     0.501079977         0.387490004         0.237969995
     0.631550014         0.262490004         0.216820002
     0.750450015         0.262490004         0.352400005
     0.751079977         0.387490004         0.237969995
     0.881550014         0.262490004         0.216820002
     0.131549999         0.512489974         0.216820002
     0.250449985         0.512489974         0.352400005
     0.251080006         0.637489974         0.237969995
     0.381550014         0.512489974         0.216820002
     0.500450015         0.512489974         0.352400005
     0.501079977         0.637489974         0.237969995
     0.631550014         0.512489974         0.216820002
     0.750450015         0.512489974         0.352400005
     0.751079977         0.637489974         0.237969995
     0.881550014         0.512489974         0.216820002
     0.131549999         0.762489974         0.216820002
     0.250449985         0.762489974         0.352400005
     0.251080006         0.887489974         0.237969995
     0.381550014         0.762489974         0.216820002
     0.500450015         0.762489974         0.352400005
     0.501079977         0.887489974         0.237969995
     0.631550014         0.762489974         0.216820002
     0.750450015         0.762489974         0.352400005
     0.751079977         0.887489974         0.237969995
     0.881550014         0.762489974         0.216820002
     0.251080006         0.137490004         0.487969995
     0.501079977         0.137490004         0.487969995
     0.751079977         0.137490004         0.487969995
     0.131549999         0.262490004         0.466820002
     0.250449985         0.262490004         0.602400005
     0.251080006         0.387490004         0.487969995
     0.381550014         0.262490004         0.466820002
     0.500450015         0.262490004         0.602400005
     0.501079977         0.387490004         0.487969995
     0.631550014         0.262490004         0.466820002
     0.750450015         0.262490004         0.602400005
     0.751079977         0.387490004         0.487969995
     0.881550014         0.262490004         0.466820002
     0.131549999         0.512489974         0.466820002
     0.250449985         0.512489974         0.602400005
     0.251080006         0.637489974         0.487969995
     0.381550014         0.512489974         0.466820002
     0.500450015         0.512489974         0.602400005
     0.501079977         0.637489974         0.487969995
     0.631550014         0.512489974         0.466820002
     0.750450015         0.512489974         0.602400005
     0.751079977         0.637489974         0.487969995
     0.881550014         0.512489974         0.466820002
     0.131549999         0.762489974         0.466820002
     0.250449985         0.762489974         0.602400005
     0.251080006         0.887489974         0.487969995
     0.381550014         0.762489974         0.466820002
     0.500450015         0.762489974         0.602400005
     0.501079977         0.887489974         0.487969995
     0.631550014         0.762489974         0.466820002
     0.750450015         0.762489974         0.602400005
     0.751079977         0.887489974         0.487969995
     0.881550014         0.762489974         0.466820002
     0.251080006         0.137490004         0.737969995
     0.501079977         0.137490004         0.737969995
     0.751079977         0.137490004         0.737969995
     0.131549999         0.262490004         0.716820002
     0.250449985         0.262490004         0.852400005
     0.251080006         0.387490004         0.737969995
     0.381550014         0.262490004         0.716820002
     0.500450015         0.262490004         0.852400005
     0.501079977         0.387490004         0.737969995
     0.631550014         0.262490004         0.716820002
     0.750450015         0.262490004         0.852400005
     0.751079977         0.387490004         0.737969995
     0.881550014         0.262490004         0.716820002
     0.131549999         0.512489974         0.716820002
     0.250449985         0.512489974         0.852400005
     0.251080006         0.637489974         0.737969995
     0.381550014         0.512489974         0.716820002
     0.500450015         0.512489974         0.852400005
     0.501079977         0.637489974         0.737969995
     0.631550014         0.512489974         0.716820002
     0.750450015         0.512489974         0.852400005
     0.751079977         0.637489974         0.737969995
     0.881550014         0.512489974         0.716820002
     0.131549999         0.762489974         0.716820002
     0.250449985         0.762489974         0.852400005
     0.251080006         0.887489974         0.737969995
     0.381550014         0.762489974         0.716820002
     0.500450015         0.762489974         0.852400005
     0.501079977         0.887489974         0.737969995
     0.631550014         0.762489974         0.716820002
     0.750450015         0.762489974         0.852400005
     0.751079977         0.887489974         0.737969995
     0.881550014         0.762489974         0.716820002
     0.258859992         0.262490004         0.227860004
     0.508859992         0.262490004         0.227860004
     0.758859992         0.262490004         0.227860004
     0.258859992         0.512489974         0.227860004
     0.508859992         0.512489974         0.227860004
     0.758859992         0.512489974         0.227860004
     0.258859992         0.762489974         0.227860004
     0.508859992         0.762489974         0.227860004
     0.758859992         0.762489974         0.227860004
     0.258859992         0.262490004         0.477860004
     0.508859992         0.262490004         0.477860004
     0.758859992         0.262490004         0.477860004
     0.258859992         0.512489974         0.477860004
     0.508859992         0.512489974         0.477860004
     0.758859992         0.512489974         0.477860004
     0.258859992         0.762489974         0.477860004
     0.508859992         0.762489974         0.477860004
     0.758859992         0.762489974         0.477860004
     0.258859992         0.262490004         0.727859974
     0.508859992         0.262490004         0.727859974
     0.758859992         0.262490004         0.727859974
     0.258859992         0.512489974         0.727859974
     0.508859992         0.512489974         0.727859974
     0.758859992         0.512489974         0.727859974
     0.258859992         0.762489974         0.727859974
     0.508859992         0.762489974         0.727859974
     0.758859992         0.762489974         0.727859974
     0.370059997         0.387490004         0.096720003
     0.620060027         0.387490004         0.096720003
     0.370059997         0.637489974         0.096720003
     0.620060027         0.637489974         0.096720003
     0.370059997         0.137490004         0.346720010
     0.620060027         0.137490004         0.346720010
     0.120059997         0.387490004         0.346720010
     0.370059997         0.387490004         0.346720010
     0.620060027         0.387490004         0.346720010
     0.870060027         0.387490004         0.346720010
     0.120059997         0.637489974         0.346720010
     0.370059997         0.637489974         0.346720010
     0.620060027         0.637489974         0.346720010
     0.870060027         0.637489974         0.346720010
     0.370059997         0.887489974         0.346720010
     0.620060027         0.887489974         0.346720010
     0.370059997         0.137490004         0.596719980
     0.620060027         0.137490004         0.596719980
     0.120059997         0.387490004         0.596719980
     0.370059997         0.387490004         0.596719980
     0.620060027         0.387490004         0.596719980
     0.870060027         0.387490004         0.596719980
     0.120059997         0.637489974         0.596719980
     0.370059997         0.637489974         0.596719980
     0.620060027         0.637489974         0.596719980
     0.870060027         0.637489974         0.596719980
     0.370059997         0.887489974         0.596719980
     0.620060027         0.887489974         0.596719980
     0.370059997         0.387490004         0.846719980
     0.620060027         0.387490004         0.846719980
     0.370059997         0.637489974         0.846719980
     0.620060027         0.637489974         0.846719980
     0.423660010         0.387490004         0.120520003
     0.673659980         0.387490004         0.120520003
     0.423660010         0.637489974         0.120520003
     0.673659980         0.637489974         0.120520003
     0.423660010         0.137490004         0.370519996
     0.673659980         0.137490004         0.370519996
     0.173659995         0.387490004         0.370519996
     0.423660010         0.387490004         0.370519996
     0.673659980         0.387490004         0.370519996
     0.923659980         0.387490004         0.370519996
     0.173659995         0.637489974         0.370519996
     0.423660010         0.637489974         0.370519996
     0.673659980         0.637489974         0.370519996
     0.923659980         0.637489974         0.370519996
     0.423660010         0.887489974         0.370519996
     0.673659980         0.887489974         0.370519996
     0.423660010         0.137490004         0.620519996
     0.673659980         0.137490004         0.620519996
     0.173659995         0.387490004         0.620519996
     0.423660010         0.387490004         0.620519996
     0.673659980         0.387490004         0.620519996
     0.923659980         0.387490004         0.620519996
     0.173659995         0.637489974         0.620519996
     0.423660010         0.637489974         0.620519996
     0.673659980         0.637489974         0.620519996
     0.923659980         0.637489974         0.620519996
     0.423660010         0.887489974         0.620519996
     0.673659980         0.887489974         0.620519996
     0.423660010         0.387490004         0.870519996
     0.673659980         0.387490004         0.870519996
     0.423660010         0.637489974         0.870519996
     0.673659980         0.637489974         0.870519996
     0.375149995         0.387490004         0.053870000
     0.348729998         0.423480004         0.109710000
     0.348729998         0.351489991         0.109710000
     0.445540011         0.421139985         0.109430000
     0.445540011         0.353839993         0.109430000
     0.421869993         0.387490004         0.161200002
     0.625150025         0.387490004         0.053870000
     0.598730028         0.423480004         0.109710000
     0.598730028         0.351489991         0.109710000
     0.695540011         0.421139985         0.109430000
     0.695540011         0.353839993         0.109430000
     0.671869993         0.387490004         0.161200002
     0.375149995         0.637489974         0.053870000
     0.348729998         0.673479974         0.109710000
     0.348729998         0.601490021         0.109710000
     0.445540011         0.671140015         0.109430000
     0.445540011         0.603839993         0.109430000
     0.421869993         0.637489974         0.161200002
     0.625150025         0.637489974         0.053870000
     0.598730028         0.673479974         0.109710000
     0.598730028         0.601490021         0.109710000
     0.695540011         0.671140015         0.109430000
     0.695540011         0.603839993         0.109430000
     0.671869993         0.637489974         0.161200002
     0.375149995         0.137490004         0.303869992
     0.348729998         0.173480004         0.359710008
     0.348729998         0.101489998         0.359710008
     0.445540011         0.171140000         0.359429985
     0.445540011         0.103840001         0.359429985
     0.421869993         0.137490004         0.411199987
     0.625150025         0.137490004         0.303869992
     0.598730028         0.173480004         0.359710008
     0.598730028         0.101489998         0.359710008
     0.695540011         0.171140000         0.359429985
     0.695540011         0.103840001         0.359429985
     0.671869993         0.137490004         0.411199987
     0.125149995         0.387490004         0.303869992
     0.098729998         0.423480004         0.359710008
     0.098729998         0.351489991         0.359710008
     0.195539996         0.421139985         0.359429985
     0.195539996         0.353839993         0.359429985
     0.171869993         0.387490004         0.411199987
     0.375149995         0.387490004         0.303869992
     0.348729998         0.423480004         0.359710008
     0.348729998         0.351489991         0.359710008
     0.445540011         0.421139985         0.359429985
     0.445540011         0.353839993         0.359429985
     0.421869993         0.387490004         0.411199987
     0.625150025         0.387490004         0.303869992
     0.598730028         0.423480004         0.359710008
     0.598730028         0.351489991         0.359710008
     0.695540011         0.421139985         0.359429985
     0.695540011         0.353839993         0.359429985
     0.671869993         0.387490004         0.411199987
     0.875150025         0.387490004         0.303869992
     0.848730028         0.423480004         0.359710008
     0.848730028         0.351489991         0.359710008
     0.945540011         0.421139985         0.359429985
     0.945540011         0.353839993         0.359429985
     0.921869993         0.387490004         0.411199987
     0.125149995         0.637489974         0.303869992
     0.098729998         0.673479974         0.359710008
     0.098729998         0.601490021         0.359710008
     0.195539996         0.671140015         0.359429985
     0.195539996         0.603839993         0.359429985
     0.171869993         0.637489974         0.411199987
     0.375149995         0.637489974         0.303869992
     0.348729998         0.673479974         0.359710008
     0.348729998         0.601490021         0.359710008
     0.445540011         0.671140015         0.359429985
     0.445540011         0.603839993         0.359429985
     0.421869993         0.637489974         0.411199987
     0.625150025         0.637489974         0.303869992
     0.598730028         0.673479974         0.359710008
     0.598730028         0.601490021         0.359710008
     0.695540011         0.671140015         0.359429985
     0.695540011         0.603839993         0.359429985
     0.671869993         0.637489974         0.411199987
     0.875150025         0.637489974         0.303869992
     0.848730028         0.673479974         0.359710008
     0.848730028         0.601490021         0.359710008
     0.945540011         0.671140015         0.359429985
     0.945540011         0.603839993         0.359429985
     0.921869993         0.637489974         0.411199987
     0.375149995         0.887489974         0.303869992
     0.348729998         0.923479974         0.359710008
     0.348729998         0.851490021         0.359710008
     0.445540011         0.921140015         0.359429985
     0.445540011         0.853839993         0.359429985
     0.421869993         0.887489974         0.411199987
     0.625150025         0.887489974         0.303869992
     0.598730028         0.923479974         0.359710008
     0.598730028         0.851490021         0.359710008
     0.695540011         0.921140015         0.359429985
     0.695540011         0.853839993         0.359429985
     0.671869993         0.887489974         0.411199987
     0.375149995         0.137490004         0.553870022
     0.348729998         0.173480004         0.609709978
     0.348729998         0.101489998         0.609709978
     0.445540011         0.171140000         0.609430015
     0.445540011         0.103840001         0.609430015
     0.421869993         0.137490004         0.661199987
     0.625150025         0.137490004         0.553870022
     0.598730028         0.173480004         0.609709978
     0.598730028         0.101489998         0.609709978
     0.695540011         0.171140000         0.609430015
     0.695540011         0.103840001         0.609430015
     0.671869993         0.137490004         0.661199987
     0.125149995         0.387490004         0.553870022
     0.098729998         0.423480004         0.609709978
     0.098729998         0.351489991         0.609709978
     0.195539996         0.421139985         0.609430015
     0.195539996         0.353839993         0.609430015
     0.171869993         0.387490004         0.661199987
     0.375149995         0.387490004         0.553870022
     0.348729998         0.423480004         0.609709978
     0.348729998         0.351489991         0.609709978
     0.445540011         0.421139985         0.609430015
     0.445540011         0.353839993         0.609430015
     0.421869993         0.387490004         0.661199987
     0.625150025         0.387490004         0.553870022
     0.598730028         0.423480004         0.609709978
     0.598730028         0.351489991         0.609709978
     0.695540011         0.421139985         0.609430015
     0.695540011         0.353839993         0.609430015
     0.671869993         0.387490004         0.661199987
     0.875150025         0.387490004         0.553870022
     0.848730028         0.423480004         0.609709978
     0.848730028         0.351489991         0.609709978
     0.945540011         0.421139985         0.609430015
     0.945540011         0.353839993         0.609430015
     0.921869993         0.387490004         0.661199987
     0.125149995         0.637489974         0.553870022
     0.098729998         0.673479974         0.609709978
     0.098729998         0.601490021         0.609709978
     0.195539996         0.671140015         0.609430015
     0.195539996         0.603839993         0.609430015
     0.171869993         0.637489974         0.661199987
     0.375149995         0.637489974         0.553870022
     0.348729998         0.673479974         0.609709978
     0.348729998         0.601490021         0.609709978
     0.445540011         0.671140015         0.609430015
     0.445540011         0.603839993         0.609430015
     0.421869993         0.637489974         0.661199987
     0.625150025         0.637489974         0.553870022
     0.598730028         0.673479974         0.609709978
     0.598730028         0.601490021         0.609709978
     0.695540011         0.671140015         0.609430015
     0.695540011         0.603839993         0.609430015
     0.671869993         0.637489974         0.661199987
     0.875150025         0.637489974         0.553870022
     0.848730028         0.673479974         0.609709978
     0.848730028         0.601490021         0.609709978
     0.945540011         0.671140015         0.609430015
     0.945540011         0.603839993         0.609430015
     0.921869993         0.637489974         0.661199987
     0.375149995         0.887489974         0.553870022
     0.348729998         0.923479974         0.609709978
     0.348729998         0.851490021         0.609709978
     0.445540011         0.921140015         0.609430015
     0.445540011         0.853839993         0.609430015
     0.421869993         0.887489974         0.661199987
     0.625150025         0.887489974         0.553870022
     0.598730028         0.923479974         0.609709978
     0.598730028         0.851490021         0.609709978
     0.695540011         0.921140015         0.609430015
     0.695540011         0.853839993         0.609430015
     0.671869993         0.887489974         0.661199987
     0.375149995         0.387490004         0.803870022
     0.348729998         0.423480004         0.859709978
     0.348729998         0.351489991         0.859709978
     0.445540011         0.421139985         0.859430015
     0.445540011         0.353839993         0.859430015
     0.421869993         0.387490004         0.911199987
     0.625150025         0.387490004         0.803870022
     0.598730028         0.423480004         0.859709978
     0.598730028         0.351489991         0.859709978
     0.695540011         0.421139985         0.859430015
     0.695540011         0.353839993         0.859430015
     0.671869993         0.387490004         0.911199987
     0.375149995         0.637489974         0.803870022
     0.348729998         0.673479974         0.859709978
     0.348729998         0.601490021         0.859709978
     0.445540011         0.671140015         0.859430015
     0.445540011         0.603839993         0.859430015
     0.421869993         0.637489974         0.911199987
     0.625150025         0.637489974         0.803870022
     0.598730028         0.673479974         0.859709978
     0.598730028         0.601490021         0.859709978
     0.695540011         0.671140015         0.859430015
     0.695540011         0.603839993         0.859430015
     0.671869993         0.637489974         0.911199987
