POSCAR
1.0
       37.7776985168         0.0000000000         0.0000000000
        0.0000648933        37.4877014160         0.0000000000
        0.9006963028        -0.0001336622        38.1461673071
    I   Pb    C    N    H
  240   64   81   81  486
Direct
     0.239089996         0.249990001         0.163729995
     0.405759990         0.249990001         0.163729995
     0.572430015         0.249990001         0.163729995
     0.739090025         0.249990001         0.163729995
     0.239089996         0.416660011         0.163729995
     0.405759990         0.416660011         0.163729995
     0.572430015         0.416660011         0.163729995
     0.739090025         0.416660011         0.163729995
     0.239089996         0.583320022         0.163729995
     0.405759990         0.583320022         0.163729995
     0.572430015         0.583320022         0.163729995
     0.739090025         0.583320022         0.163729995
     0.239089996         0.749989986         0.163729995
     0.405759990         0.749989986         0.163729995
     0.572430015         0.749989986         0.163729995
     0.739090025         0.749989986         0.163729995
     0.239510000         0.166659996         0.254110008
     0.406179994         0.166659996         0.254110008
     0.572849989         0.166659996         0.254110008
     0.739510000         0.166659996         0.254110008
     0.159830004         0.249990001         0.240009993
     0.239089996         0.249990001         0.330390006
     0.239510000         0.333319992         0.254110008
     0.326490015         0.249990001         0.240009993
     0.405759990         0.249990001         0.330390006
     0.406179994         0.333319992         0.254110008
     0.493160009         0.249990001         0.240009993
     0.572430015         0.249990001         0.330390006
     0.572849989         0.333319992         0.254110008
     0.659829974         0.249990001         0.240009993
     0.739090025         0.249990001         0.330390006
     0.739510000         0.333319992         0.254110008
     0.826489985         0.249990001         0.240009993
     0.159830004         0.416660011         0.240009993
     0.239089996         0.416660011         0.330390006
     0.239510000         0.499989986         0.254110008
     0.326490015         0.416660011         0.240009993
     0.405759990         0.416660011         0.330390006
     0.406179994         0.499989986         0.254110008
     0.493160009         0.416660011         0.240009993
     0.572430015         0.416660011         0.330390006
     0.572849989         0.499989986         0.254110008
     0.659829974         0.416660011         0.240009993
     0.739090025         0.416660011         0.330390006
     0.739510000         0.499989986         0.254110008
     0.826489985         0.416660011         0.240009993
     0.159830004         0.583320022         0.240009993
     0.239089996         0.583320022         0.330390006
     0.239510000         0.666660011         0.254110008
     0.326490015         0.583320022         0.240009993
     0.405759990         0.583320022         0.330390006
     0.406179994         0.666660011         0.254110008
     0.493160009         0.583320022         0.240009993
     0.572430015         0.583320022         0.330390006
     0.572849989         0.666660011         0.254110008
     0.659829974         0.583320022         0.240009993
     0.739090025         0.583320022         0.330390006
     0.739510000         0.666660011         0.254110008
     0.826489985         0.583320022         0.240009993
     0.159830004         0.749989986         0.240009993
     0.239089996         0.749989986         0.330390006
     0.239510000         0.833320022         0.254110008
     0.326490015         0.749989986         0.240009993
     0.405759990         0.749989986         0.330390006
     0.406179994         0.833320022         0.254110008
     0.493160009         0.749989986         0.240009993
     0.572430015         0.749989986         0.330390006
     0.572849989         0.833320022         0.254110008
     0.659829974         0.749989986         0.240009993
     0.739090025         0.749989986         0.330390006
     0.739510000         0.833320022         0.254110008
     0.826489985         0.749989986         0.240009993
     0.239510000         0.166659996         0.420769989
     0.406179994         0.166659996         0.420769989
     0.572849989         0.166659996         0.420769989
     0.739510000         0.166659996         0.420769989
     0.159830004         0.249990001         0.406679988
     0.239089996         0.249990001         0.497060001
     0.239510000         0.333319992         0.420769989
     0.326490015         0.249990001         0.406679988
     0.405759990         0.249990001         0.497060001
     0.406179994         0.333319992         0.420769989
     0.493160009         0.249990001         0.406679988
     0.572430015         0.249990001         0.497060001
     0.572849989         0.333319992         0.420769989
     0.659829974         0.249990001         0.406679988
     0.739090025         0.249990001         0.497060001
     0.739510000         0.333319992         0.420769989
     0.826489985         0.249990001         0.406679988
     0.159830004         0.416660011         0.406679988
     0.239089996         0.416660011         0.497060001
     0.239510000         0.499989986         0.420769989
     0.326490015         0.416660011         0.406679988
     0.405759990         0.416660011         0.497060001
     0.406179994         0.499989986         0.420769989
     0.493160009         0.416660011         0.406679988
     0.572430015         0.416660011         0.497060001
     0.572849989         0.499989986         0.420769989
     0.659829974         0.416660011         0.406679988
     0.739090025         0.416660011         0.497060001
     0.739510000         0.499989986         0.420769989
     0.826489985         0.416660011         0.406679988
     0.159830004         0.583320022         0.406679988
     0.239089996         0.583320022         0.497060001
     0.239510000         0.666660011         0.420769989
     0.326490015         0.583320022         0.406679988
     0.405759990         0.583320022         0.497060001
     0.406179994         0.666660011         0.420769989
     0.493160009         0.583320022         0.406679988
     0.572430015         0.583320022         0.497060001
     0.572849989         0.666660011         0.420769989
     0.659829974         0.583320022         0.406679988
     0.739090025         0.583320022         0.497060001
     0.739510000         0.666660011         0.420769989
     0.826489985         0.583320022         0.406679988
     0.159830004         0.749989986         0.406679988
     0.239089996         0.749989986         0.497060001
     0.239510000         0.833320022         0.420769989
     0.326490015         0.749989986         0.406679988
     0.405759990         0.749989986         0.497060001
     0.406179994         0.833320022         0.420769989
     0.493160009         0.749989986         0.406679988
     0.572430015         0.749989986         0.497060001
     0.572849989         0.833320022         0.420769989
     0.659829974         0.749989986         0.406679988
     0.739090025         0.749989986         0.497060001
     0.739510000         0.833320022         0.420769989
     0.826489985         0.749989986         0.406679988
     0.239510000         0.166659996         0.587440014
     0.406179994         0.166659996         0.587440014
     0.572849989         0.166659996         0.587440014
     0.739510000         0.166659996         0.587440014
     0.159830004         0.249990001         0.573339999
     0.239089996         0.249990001         0.663730025
     0.239510000         0.333319992         0.587440014
     0.326490015         0.249990001         0.573339999
     0.405759990         0.249990001         0.663730025
     0.406179994         0.333319992         0.587440014
     0.493160009         0.249990001         0.573339999
     0.572430015         0.249990001         0.663730025
     0.572849989         0.333319992         0.587440014
     0.659829974         0.249990001         0.573339999
     0.739090025         0.249990001         0.663730025
     0.739510000         0.333319992         0.587440014
     0.826489985         0.249990001         0.573339999
     0.159830004         0.416660011         0.573339999
     0.239089996         0.416660011         0.663730025
     0.239510000         0.499989986         0.587440014
     0.326490015         0.416660011         0.573339999
     0.405759990         0.416660011         0.663730025
     0.406179994         0.499989986         0.587440014
     0.493160009         0.416660011         0.573339999
     0.572430015         0.416660011         0.663730025
     0.572849989         0.499989986         0.587440014
     0.659829974         0.416660011         0.573339999
     0.739090025         0.416660011         0.663730025
     0.739510000         0.499989986         0.587440014
     0.826489985         0.416660011         0.573339999
     0.159830004         0.583320022         0.573339999
     0.239089996         0.583320022         0.663730025
     0.239510000         0.666660011         0.587440014
     0.326490015         0.583320022         0.573339999
     0.405759990         0.583320022         0.663730025
     0.406179994         0.666660011         0.587440014
     0.493160009         0.583320022         0.573339999
     0.572430015         0.583320022         0.663730025
     0.572849989         0.666660011         0.587440014
     0.659829974         0.583320022         0.573339999
     0.739090025         0.583320022         0.663730025
     0.739510000         0.666660011         0.587440014
     0.826489985         0.583320022         0.573339999
     0.159830004         0.749989986         0.573339999
     0.239089996         0.749989986         0.663730025
     0.239510000         0.833320022         0.587440014
     0.326490015         0.749989986         0.573339999
     0.405759990         0.749989986         0.663730025
     0.406179994         0.833320022         0.587440014
     0.493160009         0.749989986         0.573339999
     0.572430015         0.749989986         0.663730025
     0.572849989         0.833320022         0.587440014
     0.659829974         0.749989986         0.573339999
     0.739090025         0.749989986         0.663730025
     0.739510000         0.833320022         0.587440014
     0.826489985         0.749989986         0.573339999
     0.239510000         0.166659996         0.754109979
     0.406179994         0.166659996         0.754109979
     0.572849989         0.166659996         0.754109979
     0.739510000         0.166659996         0.754109979
     0.159830004         0.249990001         0.740010023
     0.239089996         0.249990001         0.830389977
     0.239510000         0.333319992         0.754109979
     0.326490015         0.249990001         0.740010023
     0.405759990         0.249990001         0.830389977
     0.406179994         0.333319992         0.754109979
     0.493160009         0.249990001         0.740010023
     0.572430015         0.249990001         0.830389977
     0.572849989         0.333319992         0.754109979
     0.659829974         0.249990001         0.740010023
     0.739090025         0.249990001         0.830389977
     0.739510000         0.333319992         0.754109979
     0.826489985         0.249990001         0.740010023
     0.159830004         0.416660011         0.740010023
     0.239089996         0.416660011         0.830389977
     0.239510000         0.499989986         0.754109979
     0.326490015         0.416660011         0.740010023
     0.405759990         0.416660011         0.830389977
     0.406179994         0.499989986         0.754109979
     0.493160009         0.416660011         0.740010023
     0.572430015         0.416660011         0.830389977
     0.572849989         0.499989986         0.754109979
     0.659829974         0.416660011         0.740010023
     0.739090025         0.416660011         0.830389977
     0.739510000         0.499989986         0.754109979
     0.826489985         0.416660011         0.740010023
     0.159830004         0.583320022         0.740010023
     0.239089996         0.583320022         0.830389977
     0.239510000         0.666660011         0.754109979
     0.326490015         0.583320022         0.740010023
     0.405759990         0.583320022         0.830389977
     0.406179994         0.666660011         0.754109979
     0.493160009         0.583320022         0.740010023
     0.572430015         0.583320022         0.830389977
     0.572849989         0.666660011         0.754109979
     0.659829974         0.583320022         0.740010023
     0.739090025         0.583320022         0.830389977
     0.739510000         0.666660011         0.754109979
     0.826489985         0.583320022         0.740010023
     0.159830004         0.749989986         0.740010023
     0.239089996         0.749989986         0.830389977
     0.239510000         0.833320022         0.754109979
     0.326490015         0.749989986         0.740010023
     0.405759990         0.749989986         0.830389977
     0.406179994         0.833320022         0.754109979
     0.493160009         0.749989986         0.740010023
     0.572430015         0.749989986         0.830389977
     0.572849989         0.833320022         0.754109979
     0.659829974         0.749989986         0.740010023
     0.739090025         0.749989986         0.830389977
     0.739510000         0.833320022         0.754109979
     0.826489985         0.749989986         0.740010023
     0.244700000         0.249990001         0.247370005
     0.411370009         0.249990001         0.247370005
     0.578029990         0.249990001         0.247370005
     0.744700015         0.249990001         0.247370005
     0.244700000         0.416660011         0.247370005
     0.411370009         0.416660011         0.247370005
     0.578029990         0.416660011         0.247370005
     0.744700015         0.416660011         0.247370005
     0.244700000         0.583320022         0.247370005
     0.411370009         0.583320022         0.247370005
     0.578029990         0.583320022         0.247370005
     0.744700015         0.583320022         0.247370005
     0.244700000         0.749989986         0.247370005
     0.411370009         0.749989986         0.247370005
     0.578029990         0.749989986         0.247370005
     0.744700015         0.749989986         0.247370005
     0.244700000         0.249990001         0.414029986
     0.411370009         0.249990001         0.414029986
     0.578029990         0.249990001         0.414029986
     0.744700015         0.249990001         0.414029986
     0.244700000         0.416660011         0.414029986
     0.411370009         0.416660011         0.414029986
     0.578029990         0.416660011         0.414029986
     0.744700015         0.416660011         0.414029986
     0.244700000         0.583320022         0.414029986
     0.411370009         0.583320022         0.414029986
     0.578029990         0.583320022         0.414029986
     0.744700015         0.583320022         0.414029986
     0.244700000         0.749989986         0.414029986
     0.411370009         0.749989986         0.414029986
     0.578029990         0.749989986         0.414029986
     0.744700015         0.749989986         0.414029986
     0.244700000         0.249990001         0.580699980
     0.411370009         0.249990001         0.580699980
     0.578029990         0.249990001         0.580699980
     0.744700015         0.249990001         0.580699980
     0.244700000         0.416660011         0.580699980
     0.411370009         0.416660011         0.580699980
     0.578029990         0.416660011         0.580699980
     0.744700015         0.416660011         0.580699980
     0.244700000         0.583320022         0.580699980
     0.411370009         0.583320022         0.580699980
     0.578029990         0.583320022         0.580699980
     0.744700015         0.583320022         0.580699980
     0.244700000         0.749989986         0.580699980
     0.411370009         0.749989986         0.580699980
     0.578029990         0.749989986         0.580699980
     0.744700015         0.749989986         0.580699980
     0.244700000         0.249990001         0.747370005
     0.411370009         0.249990001         0.747370005
     0.578029990         0.249990001         0.747370005
     0.744700015         0.249990001         0.747370005
     0.244700000         0.416660011         0.747370005
     0.411370009         0.416660011         0.747370005
     0.578029990         0.416660011         0.747370005
     0.744700015         0.416660011         0.747370005
     0.244700000         0.583320022         0.747370005
     0.411370009         0.583320022         0.747370005
     0.578029990         0.583320022         0.747370005
     0.744700015         0.583320022         0.747370005
     0.244700000         0.749989986         0.747370005
     0.411370009         0.749989986         0.747370005
     0.578029990         0.749989986         0.747370005
     0.744700015         0.749989986         0.747370005
     0.318830013         0.333319992         0.159940004
     0.485500008         0.333319992         0.159940004
     0.652170002         0.333319992         0.159940004
     0.318830013         0.499989986         0.159940004
     0.485500008         0.499989986         0.159940004
     0.652170002         0.499989986         0.159940004
     0.318830013         0.666660011         0.159940004
     0.485500008         0.666660011         0.159940004
     0.652170002         0.666660011         0.159940004
     0.318830013         0.166659996         0.326609999
     0.485500008         0.166659996         0.326609999
     0.652170002         0.166659996         0.326609999
     0.152170002         0.333319992         0.326609999
     0.318830013         0.333319992         0.326609999
     0.485500008         0.333319992         0.326609999
     0.652170002         0.333319992         0.326609999
     0.818830013         0.333319992         0.326609999
     0.152170002         0.499989986         0.326609999
     0.318830013         0.499989986         0.326609999
     0.485500008         0.499989986         0.326609999
     0.652170002         0.499989986         0.326609999
     0.818830013         0.499989986         0.326609999
     0.152170002         0.666660011         0.326609999
     0.318830013         0.666660011         0.326609999
     0.485500008         0.666660011         0.326609999
     0.652170002         0.666660011         0.326609999
     0.818830013         0.666660011         0.326609999
     0.318830013         0.833320022         0.326609999
     0.485500008         0.833320022         0.326609999
     0.652170002         0.833320022         0.326609999
     0.318830013         0.166659996         0.493270010
     0.485500008         0.166659996         0.493270010
     0.652170002         0.166659996         0.493270010
     0.152170002         0.333319992         0.493270010
     0.318830013         0.333319992         0.493270010
     0.485500008         0.333319992         0.493270010
     0.652170002         0.333319992         0.493270010
     0.818830013         0.333319992         0.493270010
     0.152170002         0.499989986         0.493270010
     0.318830013         0.499989986         0.493270010
     0.485500008         0.499989986         0.493270010
     0.652170002         0.499989986         0.493270010
     0.818830013         0.499989986         0.493270010
     0.152170002         0.666660011         0.493270010
     0.318830013         0.666660011         0.493270010
     0.485500008         0.666660011         0.493270010
     0.652170002         0.666660011         0.493270010
     0.818830013         0.666660011         0.493270010
     0.318830013         0.833320022         0.493270010
     0.485500008         0.833320022         0.493270010
     0.652170002         0.833320022         0.493270010
     0.318830013         0.166659996         0.659940004
     0.485500008         0.166659996         0.659940004
     0.652170002         0.166659996         0.659940004
     0.152170002         0.333319992         0.659940004
     0.318830013         0.333319992         0.659940004
     0.485500008         0.333319992         0.659940004
     0.652170002         0.333319992         0.659940004
     0.818830013         0.333319992         0.659940004
     0.152170002         0.499989986         0.659940004
     0.318830013         0.499989986         0.659940004
     0.485500008         0.499989986         0.659940004
     0.652170002         0.499989986         0.659940004
     0.818830013         0.499989986         0.659940004
     0.152170002         0.666660011         0.659940004
     0.318830013         0.666660011         0.659940004
     0.485500008         0.666660011         0.659940004
     0.652170002         0.666660011         0.659940004
     0.818830013         0.666660011         0.659940004
     0.318830013         0.833320022         0.659940004
     0.485500008         0.833320022         0.659940004
     0.652170002         0.833320022         0.659940004
     0.318830013         0.333319992         0.826610029
     0.485500008         0.333319992         0.826610029
     0.652170002         0.333319992         0.826610029
     0.318830013         0.499989986         0.826610029
     0.485500008         0.499989986         0.826610029
     0.652170002         0.499989986         0.826610029
     0.318830013         0.666660011         0.826610029
     0.485500008         0.666660011         0.826610029
     0.652170002         0.666660011         0.826610029
     0.354570001         0.333319992         0.175809994
     0.521229982         0.333319992         0.175809994
     0.687900007         0.333319992         0.175809994
     0.354570001         0.499989986         0.175809994
     0.521229982         0.499989986         0.175809994
     0.687900007         0.499989986         0.175809994
     0.354570001         0.666660011         0.175809994
     0.521229982         0.666660011         0.175809994
     0.687900007         0.666660011         0.175809994
     0.354570001         0.166659996         0.342469990
     0.521229982         0.166659996         0.342469990
     0.687900007         0.166659996         0.342469990
     0.187900007         0.333319992         0.342469990
     0.354570001         0.333319992         0.342469990
     0.521229982         0.333319992         0.342469990
     0.687900007         0.333319992         0.342469990
     0.854569972         0.333319992         0.342469990
     0.187900007         0.499989986         0.342469990
     0.354570001         0.499989986         0.342469990
     0.521229982         0.499989986         0.342469990
     0.687900007         0.499989986         0.342469990
     0.854569972         0.499989986         0.342469990
     0.187900007         0.666660011         0.342469990
     0.354570001         0.666660011         0.342469990
     0.521229982         0.666660011         0.342469990
     0.687900007         0.666660011         0.342469990
     0.854569972         0.666660011         0.342469990
     0.354570001         0.833320022         0.342469990
     0.521229982         0.833320022         0.342469990
     0.687900007         0.833320022         0.342469990
     0.354570001         0.166659996         0.509140015
     0.521229982         0.166659996         0.509140015
     0.687900007         0.166659996         0.509140015
     0.187900007         0.333319992         0.509140015
     0.354570001         0.333319992         0.509140015
     0.521229982         0.333319992         0.509140015
     0.687900007         0.333319992         0.509140015
     0.854569972         0.333319992         0.509140015
     0.187900007         0.499989986         0.509140015
     0.354570001         0.499989986         0.509140015
     0.521229982         0.499989986         0.509140015
     0.687900007         0.499989986         0.509140015
     0.854569972         0.499989986         0.509140015
     0.187900007         0.666660011         0.509140015
     0.354570001         0.666660011         0.509140015
     0.521229982         0.666660011         0.509140015
     0.687900007         0.666660011         0.509140015
     0.854569972         0.666660011         0.509140015
     0.354570001         0.833320022         0.509140015
     0.521229982         0.833320022         0.509140015
     0.687900007         0.833320022         0.509140015
     0.354570001         0.166659996         0.675809979
     0.521229982         0.166659996         0.675809979
     0.687900007         0.166659996         0.675809979
     0.187900007         0.333319992         0.675809979
     0.354570001         0.333319992         0.675809979
     0.521229982         0.333319992         0.675809979
     0.687900007         0.333319992         0.675809979
     0.854569972         0.333319992         0.675809979
     0.187900007         0.499989986         0.675809979
     0.354570001         0.499989986         0.675809979
     0.521229982         0.499989986         0.675809979
     0.687900007         0.499989986         0.675809979
     0.854569972         0.499989986         0.675809979
     0.187900007         0.666660011         0.675809979
     0.354570001         0.666660011         0.675809979
     0.521229982         0.666660011         0.675809979
     0.687900007         0.666660011         0.675809979
     0.854569972         0.666660011         0.675809979
     0.354570001         0.833320022         0.675809979
     0.521229982         0.833320022         0.675809979
     0.687900007         0.833320022         0.675809979
     0.354570001         0.333319992         0.842469990
     0.521229982         0.333319992         0.842469990
     0.687900007         0.333319992         0.842469990
     0.354570001         0.499989986         0.842469990
     0.521229982         0.499989986         0.842469990
     0.687900007         0.499989986         0.842469990
     0.354570001         0.666660011         0.842469990
     0.521229982         0.666660011         0.842469990
     0.687900007         0.666660011         0.842469990
     0.322230011         0.333319992         0.131380007
     0.304610014         0.357320011         0.168599993
     0.304610014         0.309329987         0.168599993
     0.369150013         0.355760008         0.168420002
     0.369150013         0.310889989         0.168420002
     0.353370011         0.333319992         0.202930003
     0.488900006         0.333319992         0.131380007
     0.471280009         0.357320011         0.168599993
     0.471280009         0.309329987         0.168599993
     0.535820007         0.355760008         0.168420002
     0.535820007         0.310889989         0.168420002
     0.520039976         0.333319992         0.202930003
     0.655560017         0.333319992         0.131380007
     0.637939990         0.357320011         0.168599993
     0.637950003         0.309329987         0.168599993
     0.702489972         0.355760008         0.168420002
     0.702489972         0.310889989         0.168420002
     0.686699986         0.333319992         0.202930003
     0.322230011         0.499989986         0.131380007
     0.304610014         0.523989975         0.168599993
     0.304610014         0.475989997         0.168599993
     0.369150013         0.522419989         0.168420002
     0.369150013         0.477560014         0.168420002
     0.353370011         0.499989986         0.202930003
     0.488900006         0.499989986         0.131380007
     0.471280009         0.523989975         0.168599993
     0.471280009         0.475989997         0.168599993
     0.535820007         0.522419989         0.168420002
     0.535820007         0.477560014         0.168420002
     0.520039976         0.499989986         0.202930003
     0.655560017         0.499989986         0.131380007
     0.637939990         0.523989975         0.168599993
     0.637950003         0.475989997         0.168599993
     0.702489972         0.522419989         0.168420002
     0.702489972         0.477560014         0.168420002
     0.686699986         0.499989986         0.202930003
     0.322230011         0.666660011         0.131380007
     0.304610014         0.690649986         0.168599993
     0.304610014         0.642660022         0.168599993
     0.369150013         0.689090014         0.168420002
     0.369150013         0.644230008         0.168420002
     0.353370011         0.666660011         0.202930003
     0.488900006         0.666660011         0.131380007
     0.471280009         0.690649986         0.168599993
     0.471280009         0.642660022         0.168599993
     0.535820007         0.689090014         0.168420002
     0.535820007         0.644230008         0.168420002
     0.520039976         0.666660011         0.202930003
     0.655560017         0.666660011         0.131380007
     0.637939990         0.690649986         0.168599993
     0.637950003         0.642660022         0.168599993
     0.702489972         0.689090014         0.168420002
     0.702489972         0.644230008         0.168420002
     0.686699986         0.666660011         0.202930003
     0.322230011         0.166659996         0.298040003