POSCAR_222_1
1.0
       18.8889007568         0.0000000000         0.0000000000
        0.0000324467        18.7439002990         0.0000000000
        0.4503481514        -0.0000668311        19.0730836536
    I   Pb    C    N    H
   36    8    7    7   42
Direct
     0.333939999         0.349979997         0.136529997
     0.667270005         0.349979997         0.136529997
     0.333939999         0.683319986         0.136529997
     0.667270005         0.683319986         0.136529997
     0.334780008         0.183320001         0.317290008
     0.668110013         0.183320001         0.317290008
     0.175400004         0.349979997         0.289099991
     0.333939999         0.349979997         0.469870001
     0.334780008         0.516650021         0.317290008
     0.508740008         0.349979997         0.289099991
     0.667270005         0.349979997         0.469870001
     0.668110013         0.516650021         0.317290008
     0.842069983         0.349979997         0.289099991
     0.175400004         0.683319986         0.289099991
     0.333939999         0.683319986         0.469870001
     0.334780008         0.849979997         0.317290008
     0.508740008         0.683319986         0.289099991
     0.667270005         0.683319986         0.469870001
     0.668110013         0.849979997         0.317290008
     0.842069983         0.683319986         0.289099991
     0.334780008         0.183320001         0.650619984
     0.668110013         0.183320001         0.650619984
     0.175400004         0.349979997         0.622430027
     0.333939999         0.349979997         0.803200006
     0.334780008         0.516650021         0.650619984
     0.508740008         0.349979997         0.622430027
     0.667270005         0.349979997         0.803200006
     0.668110013         0.516650021         0.650619984
     0.842069983         0.349979997         0.622430027
     0.175400004         0.683319986         0.622430027
     0.333939999         0.683319986         0.803200006
     0.334780008         0.849979997         0.650619984
     0.508740008         0.683319986         0.622430027
     0.667270005         0.683319986         0.803200006
     0.668110013         0.849979997         0.650619984
     0.842069983         0.683319986         0.622430027
     0.345149994         0.349979997         0.303810000
     0.678480029         0.349979997         0.303810000
     0.345149994         0.683319986         0.303810000
     0.678480029         0.683319986         0.303810000
     0.345149994         0.349979997         0.637149990
     0.678480029         0.349979997         0.637149990
     0.345149994         0.683319986         0.637149990
     0.678480029         0.683319986         0.637149990
     0.493409991         0.516650021         0.128959998
     0.493409991         0.183320001         0.462289989
     0.160080001         0.516650021         0.462289989
     0.493409991         0.516650021         0.462289989
     0.826749980         0.516650021         0.462289989
     0.493409991         0.849979997         0.462289989
     0.493409991         0.516650021         0.795620024
     0.564880013         0.516650021         0.160689995
     0.564880013         0.183320001         0.494029999
     0.231549993         0.516650021         0.494029999
     0.564880013         0.516650021         0.494029999
     0.898220003         0.516650021         0.494029999
     0.564880013         0.849990010         0.494029999
     0.564880013         0.516650021         0.827359974
     0.500209987         0.516650021         0.071829997
     0.464969993         0.564639986         0.146280006
     0.464969993         0.468659997         0.146280006
     0.594049990         0.561519980         0.145909995
     0.594060004         0.471789986         0.145909995
     0.562489986         0.516650021         0.214939997
     0.500209987         0.183320001         0.405169994
     0.464969993         0.231309995         0.479609996
     0.464969993         0.135319993         0.479609996
     0.594049990         0.228180006         0.479240000
     0.594060004         0.138449997         0.479240000
     0.562489986         0.183320001         0.548269987
     0.166869998         0.516650021         0.405169994
     0.131640002         0.564639986         0.479609996
     0.131640002         0.468659997         0.479609996
     0.260720015         0.561519980         0.479240000
     0.260720015         0.471789986         0.479240000
     0.229159996         0.516650021         0.548269987
     0.500209987         0.516650021         0.405169994
     0.464969993         0.564639986         0.479609996
     0.464969993         0.468659997         0.479609996
     0.594049990         0.561519980         0.479240000
     0.594060004         0.471789986         0.479240000
     0.562489986         0.516650021         0.548269987
     0.833540022         0.516650021         0.405169994
     0.798300028         0.564639986         0.479609996
     0.798309982         0.468659997         0.479609996
     0.927389979         0.561519980         0.479240000
     0.927389979         0.471789986         0.479240000
     0.895820022         0.516650021         0.548269987
     0.500209987         0.849979997         0.405169994
     0.464969993         0.897970021         0.479609996
     0.464969993         0.801989973         0.479609996
     0.594049990         0.894850016         0.479240000
     0.594060004         0.805119991         0.479240000
     0.562489986         0.849979997         0.548269987
     0.500209987         0.516650021         0.738499999
     0.464969993         0.564639986         0.812950015
     0.464969993         0.468659997         0.812950015
     0.594049990         0.561519980         0.812579989
     0.594060004         0.471789986         0.812579989
     0.562489986         0.516650021         0.881600022
